************************************************************************
file with basedata            : md374_.bas
initial value random generator: 1666639687
************************************************************************
projects                      :  1
jobs (incl. supersource/sink ):  22
horizon                       :  171
RESOURCES
  - renewable                 :  2   R
  - nonrenewable              :  2   N
  - doubly constrained        :  0   D
************************************************************************
PROJECT INFORMATION:
pronr.  #jobs rel.date duedate tardcost  MPM-Time
    1     20      0       28       13       28
************************************************************************
PRECEDENCE RELATIONS:
jobnr.    #modes  #successors   successors
   1        1          3           2   3   4
   2        3          3           6   9  12
   3        3          3           5   7  11
   4        3          2           9  16
   5        3          2          10  16
   6        3          3           8  15  18
   7        3          2          12  13
   8        3          1          10
   9        3          2          15  18
  10        3          3          13  17  21
  11        3          2          14  18
  12        3          2          14  17
  13        3          1          20
  14        3          1          21
  15        3          2          17  21
  16        3          2          19  20
  17        3          1          19
  18        3          2          19  20
  19        3          1          22
  20        3          1          22
  21        3          1          22
  22        1          0        
************************************************************************
REQUESTS/DURATIONS:
jobnr. mode duration  R 1  R 2  N 1  N 2
------------------------------------------------------------------------
  1      1     0       0    0    0    0
  2      1     3       7    7    7    6
         2     3       5    7    7    7
         3     6       4    6    7    5
  3      1     4       2   10    9    7
         2     5       2   10    8    5
         3     8       1    9    5    3
  4      1     5       6    3    9    6
         2     5       7    3   10    5
         3     7       4    3    9    4
  5      1     4       8    8    7   10
         2     8       8    7    7    5
         3     9       7    4    5    3
  6      1     4       3    6    4    7
         2     6       2    4    4    6
         3    10       2    2    4    6
  7      1     7       5    4    5    9
         2     9       5    3    2    7
         3     9       4    3    5    8
  8      1     3       3   10    3    7
         2     3       1    8    5    8
         3     3       4    9    5    7
  9      1     6       5   10    4    8
         2     8       2    9    4    6
         3    10       2    7    3    4
 10      1     5       8    6    6    9
         2     9       7    5    4    6
         3    10       6    4    1    4
 11      1     1       6    9    6    3
         2     3       6    8    4    3
         3     6       6    8    1    3
 12      1     6       3    8    5    4
         2     7       3    6    5    3
         3     9       3    1    5    2
 13      1     3       5    9    8    9
         2     3       9    8    8    8
         3     8       1    6    6    6
 14      1     4       7    6    5    6
         2     5       6    5    4    6
         3    10       6    1    2    6
 15      1     4       5    7    5    8
         2     7       4    6    5    6
         3    10       1    6    2    6
 16      1     3       7    5    4    9
         2     7       6    5    4    8
         3     8       3    5    2    7
 17      1     6       6   10    9    5
         2     7       6   10    5    5
         3    10       5   10    4    4
 18      1     4       8    9    9    7
         2     5       8    9    7    5
         3    10       5    9    4    4
 19      1     4      10    7    2    7
         2     8      10    6    2    5
         3    10      10    6    2    4
 20      1     2       4    5    8   10
         2     4       3    4    8    8
         3     8       3    4    7    8
 21      1     7       8    6    6    3
         2    10       6    5    5    3
         3    10       7    3    5    2
 22      1     0       0    0    0    0
************************************************************************
RESOURCEAVAILABILITIES:
  R 1  R 2  N 1  N 2
   20   21  113  130
************************************************************************
MAXIMAL LAGS:
from  to  type  delay
    1   12   ES      0
    1    2   ES      0
    2   12   ES      0
    1    3   ES      0
    3   12   ES      0
    1    4   ES      0
    4   12   ES      0
    1    5   ES      0
    5   12   ES      0
    1    6   ES      0
    6   12   ES      0
    1    7   ES      0
    7   12   ES      0
    1    8   ES      0
    8   12   ES      0
    1    9   ES      0
    9   12   ES      0
    1   10   ES      0
   10   12   ES      0
    1   11   ES      0
   11   12   ES      0
    1   12   ES      0
    2    6   SS      4
    2    6   SE      2
    2    6   ES      5
    2    6   EE      6
    2    9   SS    -11
    2    9   SE     -4
    2    9   ES      5
    2    9   EE     -5
    3    5   SS     -6
    3    5   SE     -4
    3    5   ES      1
    3    5   EE     -2
    3    7   SS      5
    3    7   SE      0
    3    7   ES     10
    3    7   EE      2
    3   11   SS     11
    3   11   SE      8
    3   11   ES     -8
    3   11   EE      0
    4    9   SS    -11
    4    9   SE     -7
    4    9   ES     -9
    4    9   EE     -6
    4   16   SS    -10
    4   16   SE      9
    4   16   ES      4
    4   16   EE     10
    5   10   SS    -12
    5   10   SE      1
    5   10   ES     10
    5   10   EE      1
    5   16   SS     11
    5   16   SE     11
    5   16   ES      1
    5   16   EE     -3
    6    8   SS    -11
    6    8   SE     -2
    6    8   ES      8
    6    8   EE      7
    6   15   SS      6
    6   15   SE      3
    6   15   ES      8
    6   15   EE      9
    6   18   SS     -3
    6   18   SE     -5
    6   18   ES      8
    6   18   EE    -12
    7   13   SS      4
    7   13   SE      3
    7   13   ES     11
    7   13   EE      5
    8   10   SS    -12
    8   10   SE     10
    8   10   ES     -6
    8   10   EE      2
    9   15   SS      4
    9   15   SE     -7
    9   15   ES      8
    9   15   EE     12
    9   18   SS     -2
    9   18   SE     10
    9   18   ES     -5
    9   18   EE      2
   10   13   SS     -9
   10   13   SE     -8
   10   13   ES      1
   10   13   EE     11
   10   17   SS      4
   10   17   SE      4
   10   17   ES      3
   10   17   EE    -12
   10   21   SS     -3
   10   21   SE    -10
   10   21   ES     -2
   10   21   EE     -2
   11   14   SS      3
   11   14   SE      5
   11   14   ES      8
   11   14   EE     -9
   11   18   SS     -5
   11   18   SE      8
   11   18   ES     11
   11   18   EE      2
   12   14   SS     -6
   12   14   SE     10
   12   14   ES    -10
   12   14   EE     -3
   12   17   SS     -7
   12   17   SE     -9
   12   17   ES      3
   12   17   EE      9
   13   20   SS     -2
   13   20   SE      0
   13   20   ES     -8
   13   20   EE     -4
   14   21   SS      3
   14   21   SE      7
   14   21   ES      7
   14   21   EE     -4
   15   17   SS     11
   15   17   SE     -4
   15   17   ES     -5
   15   17   EE     -6
   15   21   SS     -9
   15   21   SE      3
   15   21   ES      5
   15   21   EE     -7
   16   19   SS      2
   16   19   SE     -5
   16   19   ES     11
   16   19   EE    -11
   16   20   SS     -1
   16   20   SE      8
   16   20   ES      7
   16   20   EE      3
   17   19   SS      1
   17   19   SE      1
   17   19   ES     -8
   17   19   EE    -11
   18   19   SS      4
   18   19   SE     -3
   18   19   ES    -12
   18   19   EE      2
   18   20   SS      4
   18   20   SE     -4
   18   20   ES     10
   18   20   EE      0
   19   22   SS     -4
   19   22   SE    -12
   19   22   ES     12
   19   22   EE     -9
   20   22   SS     -2
   20   22   SE      2
   20   22   ES      2
   20   22   EE     -3
   21   22   SS      1
   21   22   SE      0
   21   22   ES     -8
   21   22   EE     -9
************************************************************************
